NAME = SAfile180,
TOURSIZE = 180,
LENGTH = 1970,
171,83,41,155,128,113,57,142,98,91,1,11,63,38,50,4,32,144,108,157,56,86,87,154,129,102,88,25,133,59,161,151,117,49,99,119,71,140,5,9,148,125,58,180,176,103,96,170,164,54,28,73,33,146,143,100,65,112,81,48,94,26,101,126,127,80,121,179,166,106,19,150,149,107,35,84,130,174,173,175,22,17,68,20,122,134,13,152,139,43,52,135,158,116,172,45,12,16,29,115,120,7,178,47,51,30,109,95,92,160,165,15,61,162,79,93,8,21,42,138,46,40,147,53,31,141,27,114,111,110,105,69,67,131,76,34,10,97,156,2,18,136,90,167,75,39,3,6,132,78,159,153,123,124,55,169,177,104,145,163,74,168,14,60,85,82,72,62,137,24,44,118,89,77,70,23,37,36,66,64